10J3M/DAT/10J3MNNR-2.dat
10 3
25.7486 6.7558
29.7035 9.7772
16.7224 16.9893
22.4618 14.7407
27.8954 19.9095
28.6957 3.0301
28.2946 37.2734
30.4301 29.5268
15.5689 37.8069
21.8385 31.2829
207.0926