10J3M/SOL/10J3MNNR-2.sol
solution status: optimal solution found
objective value:                     75.0389666666667
x#1#1                                               1 	(obj:0)
x#2#3                                               1 	(obj:0)
x#3#3                                               1 	(obj:0)
x#4#2                                               1 	(obj:0)
x#5#1                               0.354071122915744 	(obj:0)
x#5#2                               0.645928877084256 	(obj:0)
x#6#2                                               1 	(obj:0)
x#7#2                               0.394551945140106 	(obj:0)
x#7#3                               0.605448054859894 	(obj:0)
x#8#1                                               1 	(obj:0)
x#9#1                                               1 	(obj:0)
x#10#1                                              1 	(obj:0)
z                                    75.0389666666667 	(obj:1)
